168 174 129 80 33 148 185 37 65 7 51 137 119 179 26 23 164 87 178 12 180 78 146 40 83 136 171 14 72 38 90 53 153 62 151 15 76 42 154 3 70 187 122 121 92 43 59 52 123 117 61 36 195 18 1 99 191 50 118 34 29 143 47 140 135 144 116 91 177 54 112 86 25 162 130 147 94 150 55 20 9 181 132 46 27 11 114 105 103 182 81 163 113 24 19 141 8 101 115 4 176 2 82 39 5 58 149 63 84 17 188 142 95 85 159 173 64 186 13 67 32 165 44 98 77 30 56 71 134 160 126 75 79 193 156 106 183 157 68 133 108 124 145 45 120 189 100 194 73 111 60 170 6 197 131 66 74 158 35 128 107 198 175 196 190 28 127 57 102 110 192 21 184 172 41 22 109 167 10 88 89 16 139 138 69 152 48 169 97 166 96 104 31 93 161 125 199 155 0 49